
  14    4
  10   10   10   10

   0   0   0   0   0   1 2 
   3   0   2   0   0   2 8 3 
   9   0   0   7   2   1 4 
  10   1   0   0   0   1 5 
   3   0   0   5   6   1 6 
   9  10   0   0   0   1 7 
   8   0   6   0   7   1 9 
   9   9   5   4   8   1 9 
   5   0   0   0  10   2 13 10 
   5   5   9   0   0   1 11 
  10   0   7  10   7   1 12 
   6   0  10   0   0   1 14
   3   8   0   0   6   1 14
   0   0   0   0   0   0 

TAO:7.16667